SCIP version 5.0.0 [precision: 8 byte] [memory: block] [mode: optimized] [LP solver: NONE] [GitHash: 3bbd232]
Copyright (C) 2002-2017 Konrad-Zuse-Zentrum fuer Informationstechnik Berlin (ZIB)

External codes: 
  Readline EditLine w  GNU library for command line editing (gnu.org/s/readline)
  CppAD 20160000.1     Algorithmic Differentiation of C++ algorithms developed by B. Bell (www.coin-or.org/CppAD)
  ZLIB 1.2.5           General purpose compression library by J. Gailly and M. Adler (zlib.net)
  GMP 6.1.2            GNU Multiple Precision Arithmetic Library developed by T. Granlund (gmplib.org)

user parameter file <scip.set> not found - using default parameters

read problem <../../Split_data/output/parkin/6/3_sample_parkin.logreg>
============

File name	:	../../Split_data/output/parkin/6/3_sample_parkin.logreg
Problem name 	:	3_sample_parkin
Number of data	:	156
Number of var	:	22
The given data has linear independence

[dim=1] time: 0.004031
[dim=2] time: 0.007032
[dim=3] time: 0.009717
[dim=4] time: 0.011861
[dim=5] time: 0.014135
[dim=6] time: 0.016211
[dim=7] Time of forward = 0.019105sec.
AIC: 95.3278
k: 6

[dim=22] time: 0.043791
[dim=21] time: 0.145162
[dim=20] time: 0.26728
[dim=19] time: 0.272865
[dim=18] time: 0.427663
[dim=17] time: 0.432149
[dim=16] time: 0.46052
[dim=15] time: 0.485303
[dim=14] time: 0.491875
[dim=13] time: 0.495051
[dim=12] time: 0.497313
[dim=11] time: 0.499571
[dim=10] Time of backward = 0.501453sec.
AIC: 83.6234
k: 11
